
Gurobi 7.0.2 (linux64, Matlab) logging started Sun Sep  2 08:55:49 2018


Gurobi 7.0.2 (linux64) logging started Sun Sep  2 08:55:49 2018

Optimize a model with 146398 rows, 38262 columns and 371070 nonzeros
Coefficient statistics:
  Matrix range     [3e-01, 1e+02]
  Objective range  [1e+00, 1e+00]
  Bounds range     [1e+00, 1e+00]
  RHS range        [5e-02, 1e+02]
Iteration    Objective       Primal Inf.    Dual Inf.      Time
       0    1.3786478e-08   0.000000e+00   0.000000e+00      0s

Solved in 0 iterations and 0.04 seconds
Optimal objective  1.378647825e-08
